Name:		mgval_0.45_7C
Optimal value:	-1
#Vehicles:	9
Capacity:	65
Depot Node:	1
#Nodes:		40
#Edges:		28
#Arcs:		62
#Required N:	27
#Required E:	15
#Required A:	34

ReN.	DEMAND	S. COST
N2	14	14
N3	3	3
N4	7	7
N6	9	9
N7	4	4
N8	19	19
N9	9	9
N10	12	12
N11	6	6
N12	18	18
N13	14	14
N16	8	8
N18	21	21
N20	8	8
N22	2	2
N23	7	7
N26	24	24
N27	5	5
N28	6	6
N31	14	14
N33	9	9
N35	12	12
N36	6	6
N37	7	7
N38	2	2
N39	5	5
N40	5	5

ReE.	FROM N.	TO N.	T. COST	DEMAND	S. COST
E14	18	19	4	14	14
E15	1	6	3	8	8
E16	2	36	3	12	12
E17	14	15	4	7	7
E18	32	39	2	8	8
E19	11	16	3	10	10
E20	22	25	1	3	3
E21	1	35	4	12	12
E22	7	13	1	3	3
E23	35	36	6	14	14
E24	24	25	2	5	5
E25	27	34	3	9	9
E26	33	34	3	8	8
E27	29	36	4	9	9
E28	29	30	3	12	12

EDGE	FROM N.	TO N.	T. COST
NrE1	20	23	3
NrE2	1	10	8
NrE3	26	34	5
NrE4	4	38	3
NrE5	18	22	6
NrE6	8	14	7
NrE7	23	24	2
NrE8	1	33	4
NrE9	31	38	4
NrE10	3	7	2
NrE11	13	19	6
NrE12	12	17	4
NrE13	26	27	4

ReA.	FROM N.	TO N.	T. COST	DEMAND	S. COST
A29	5	39	2	3	3
A30	8	40	5	8	8
A31	38	39	7	4	4
A32	26	33	5	7	7
A33	32	31	5	12	12
A34	15	16	3	4	4
A35	34	35	6	4	4
A36	11	12	7	4	4
A37	30	31	3	5	5
A38	37	3	4	3	3
A39	10	9	2	3	3
A40	21	22	1	2	2
A41	28	35	10	7	7
A42	2	1	2	2	2
A43	16	15	3	4	4
A44	31	37	5	7	7
A45	8	9	5	6	6
A46	24	21	3	3	3
A47	20	17	6	12	12
A48	15	9	2	9	9
A49	37	30	3	5	5
A50	18	13	2	3	3
A51	33	26	5	7	7
A52	3	4	2	2	2
A53	5	4	3	7	7
A54	1	40	4	5	5
A55	21	24	3	3	3
A56	3	37	4	3	3
A57	1	11	3	6	6
A58	39	5	2	3	3
A59	37	38	2	2	2
A60	21	20	2	3	3
A61	12	11	7	5	5
A62	17	13	2	6	6

ARC	FROM N.	TO N.	T. COST
NrA1	6	2	2
NrA2	1	2	2
NrA3	18	17	5
NrA4	28	27	3
NrA5	12	6	2
NrA6	40	1	4
NrA7	39	38	7
NrA8	35	28	10
NrA9	6	12	2
NrA10	9	8	5
NrA11	6	7	4
NrA12	37	36	4
NrA13	35	34	6
NrA14	2	3	5
NrA15	36	37	4
NrA16	38	37	2
NrA17	12	13	6
NrA18	4	3	2
NrA19	16	10	4
NrA20	27	28	3
NrA21	13	18	2
NrA22	31	30	3
NrA23	2	6	2
NrA24	22	21	1
NrA25	1	8	4
NrA26	7	6	4
NrA27	11	1	3
NrA28	9	10	2
